
Log started (V22.1.0.0) Sun Jan 15 13:17:36 2023


Problem '/tmp/fbacb93655654c95a239943436926945-pulp.lp' read.
Read time = 0.87 sec. (56.82 ticks)
Version identifier: 22.1.0.0 | 2022-03-09 | 1a383f8ce
Tried aggregator 3 times.
MIP Presolve eliminated 129727 rows and 65363 columns.
MIP Presolve modified 1155 coefficients.
Aggregator did 64570 substitutions.
Reduced MIP has 381697 rows, 286705 columns, and 1145262 nonzeros.
Reduced MIP has 286705 binaries, 0 generals, 0 SOSs, and 0 indicators.
Presolve time = 6.02 sec. (5918.78 ticks)
Probing fixed 561 vars, tightened 0 bounds.
Probing time = 30.03 sec. (3162.42 ticks)
Tried aggregator 3 times.
Detecting symmetries...
MIP Presolve eliminated 3240 rows and 2959 columns.
MIP Presolve modified 765 coefficients.
Aggregator did 659 substitutions.
Reduced MIP has 377798 rows, 283087 columns, and 1133312 nonzeros.
Reduced MIP has 283087 binaries, 0 generals, 0 SOSs, and 0 indicators.
Presolve time = 7.36 sec. (6333.09 ticks)
Probing fixed 2 vars, tightened 0 bounds.
Probing time = 2.53 sec. (285.76 ticks)
Clique table members: 849774.
MIP emphasis: balance optimality and feasibility.
MIP search method: dynamic search.
Parallel mode: deterministic, using up to 8 threads.

Root node processing (before b&c):
  Real time             =  338.33 sec. (61548.57 ticks)
Parallel b&c, 8 threads:
  Real time             =    0.00 sec. (0.00 ticks)
  Sync time (average)   =    0.00 sec.
  Wait time (average)   =    0.00 sec.
                          ------------
Total (root+branch&cut) =  338.33 sec. (61548.57 ticks)

Solution pool: 1 solution saved.

MIP - Aborted, integer feasible:  Objective =  2.0400000000e+02
Current MIP best bound =  5.5000000000e+01 (gap = 149, 73.04%)
Solution time =  338.43 sec.  Iterations = 0  Nodes = 0 (1)
Deterministic time = 61549.76 ticks  (181.87 ticks/sec)

